(set-logic HORN)
(declare-fun state (Int (Array Int Int) (Array Int Int) (Array Int Int) (Array Int Int) Int Int (Array Int Int) (Array Int Int) Int Int Int Int Int Int Int Int Int Int Int Int Int Int Int Int Int Int Int Int Int Int Int Int Bool Bool Bool Bool Bool (Array Int Int)) Bool)
(assert (forall ((|A_23| Int) (|B_23| (Array Int Int)) (|C_23| (Array Int Int)) (|D_23| (Array Int Int)) (|E_23| (Array Int Int)) (|F_23| Int) (|G_23| Int) (|H_23| (Array Int Int)) (|I_23| (Array Int Int)) (|J_23| Int) (|K_23| Int) (|L_23| Int) (|M_23| Int) (|N_23| Int) (|O_23| Int) (|P_23| Int) (|Q_23| Int) (|R_23| Int) (|S_23| Int) (|T_23| Int) (|U_23| Int) (|V_23| Int) (|W_23| Int) (|X_23| Int) (|Y_23| Int) (|Z_23| Int) (|A1_23| Int) (|B1_23| Int) (|C1_23| Int) (|D1_23| Int) (|E1_23| Int) (|F1_23| Int) (|G1_23| Int) (|I1_13| Bool) (|.loc.5| Bool) (|.loc.6| Bool) (|.loc.7| Bool) (|.loc.8| Bool) (|I1_0| (Array Int Int)) (|.x.775| Int) (|.x.773| (Array Int Int)) (|.x.771| Int) (|.x.769| (Array Int Int)) (|.x.765| Int) (|.x.767| (Array Int Int)) (|.x.766| (Array Int Int)) (|H1_23| Bool) (|.x.777| Int) (|.x.778| Int) (|.x.783| Int) (|.x.786| Int) (|.x.789| Int) (|.x.792| Int) (|.x.793| Int) (|.x.794| Int) (|.loc.11| Bool) (|.loc.10| Bool) (|.x.790| Int) (|.x.780| Int) (|.x.791| Int) (|.x.795| Int) (|.loc.9| Bool) (|.x.787| Int) (|.x.785| Int) (|.loc.12| Bool) (|.x.782| Int) (|.x.768| (Array Int Int)) (|.x.788| Int) (|.x.796| Int) (|.x.797| Int) (|.x.781| Int) (|.x.784| Int) (|.x.776| Int) (|.x.779| Int) (|.x.774| Int) (|.x.770| Int) (|.x.772| (Array Int Int)) (|.xtv.1| (Array Int Int))) (=> (and (and (and (and .loc.5 (not .loc.6)) (not .loc.7)) (not .loc.8)) (and (and (and (and (and (= D_23 E_23) (not I1_13)) (= J_23 K_23)) (= F_23 G_23)) (= H_23 I_23)) (= B_23 C_23))) (state |A_23| |B_23| |C_23| |D_23| |E_23| |F_23| |G_23| |H_23| |I_23| |J_23| |K_23| |L_23| |M_23| |N_23| |O_23| |P_23| |Q_23| |R_23| |S_23| |T_23| |U_23| |V_23| |W_23| |X_23| |Y_23| |Z_23| |A1_23| |B1_23| |C1_23| |D1_23| |E1_23| |F1_23| |G1_23| |I1_13| |.loc.5| |.loc.6| |.loc.7| |.loc.8| |I1_0|))))
(assert (forall ((|A_23| Int) (|B_23| (Array Int Int)) (|C_23| (Array Int Int)) (|D_23| (Array Int Int)) (|E_23| (Array Int Int)) (|F_23| Int) (|G_23| Int) (|H_23| (Array Int Int)) (|I_23| (Array Int Int)) (|J_23| Int) (|K_23| Int) (|L_23| Int) (|M_23| Int) (|N_23| Int) (|O_23| Int) (|P_23| Int) (|Q_23| Int) (|R_23| Int) (|S_23| Int) (|T_23| Int) (|U_23| Int) (|V_23| Int) (|W_23| Int) (|X_23| Int) (|Y_23| Int) (|Z_23| Int) (|A1_23| Int) (|B1_23| Int) (|C1_23| Int) (|D1_23| Int) (|E1_23| Int) (|F1_23| Int) (|G1_23| Int) (|I1_13| Bool) (|.loc.5| Bool) (|.loc.6| Bool) (|.loc.7| Bool) (|.loc.8| Bool) (|I1_0| (Array Int Int)) (|.x.775| Int) (|.x.773| (Array Int Int)) (|.x.771| Int) (|.x.769| (Array Int Int)) (|.x.765| Int) (|.x.767| (Array Int Int)) (|.x.766| (Array Int Int)) (|H1_23| Bool) (|.x.777| Int) (|.x.778| Int) (|.x.783| Int) (|.x.786| Int) (|.x.789| Int) (|.x.792| Int) (|.x.793| Int) (|.x.794| Int) (|.loc.11| Bool) (|.loc.10| Bool) (|.x.790| Int) (|.x.780| Int) (|.x.791| Int) (|.x.795| Int) (|.loc.9| Bool) (|.x.787| Int) (|.x.785| Int) (|.loc.12| Bool) (|.x.782| Int) (|.x.768| (Array Int Int)) (|.x.788| Int) (|.x.796| Int) (|.x.797| Int) (|.x.781| Int) (|.x.784| Int) (|.x.776| Int) (|.x.779| Int) (|.x.774| Int) (|.x.770| Int) (|.x.772| (Array Int Int)) (|.xtv.1| (Array Int Int))) (=> (and (state |A_23| |B_23| |C_23| |D_23| |E_23| |F_23| |G_23| |H_23| |I_23| |J_23| |K_23| |L_23| |M_23| |N_23| |O_23| |P_23| |Q_23| |R_23| |S_23| |T_23| |U_23| |V_23| |W_23| |X_23| |Y_23| |Z_23| |A1_23| |B1_23| |C1_23| |D1_23| |E1_23| |F1_23| |G1_23| |I1_13| |.loc.5| |.loc.6| |.loc.7| |.loc.8| |I1_0|) (let ((.def_49 (not .loc.6))) (let ((.def_51 (not .loc.7))) (let ((.def_53 (not .loc.8))) (let ((.def_85 (= B_23 .x.766))) (let ((.def_89 (= M_23 .x.777))) (let ((.def_92 (= N_23 .x.778))) (let ((.def_95 (= S_23 .x.783))) (let ((.def_98 (= V_23 .x.786))) (let ((.def_101 (= Y_23 .x.789))) (let ((.def_104 (= B1_23 .x.792))) (let ((.def_107 (= C1_23 .x.793))) (let ((.def_110 (= D1_23 .x.794))) (let ((.def_112 (not .loc.5))) (let ((.def_125 (= I1_13 H1_23))) (let ((.def_132 (not .loc.10))) (let ((.def_135 (= P_23 0))) (let ((.def_138 (and .def_92 (and .def_85 .def_89)))) (let ((.def_144 (and .def_110 (and .def_107 (and .def_104 (and .def_101 (and .def_98 (and .def_95 .def_138)))))))) (let ((.def_148 (not .loc.11))) (let ((.def_154 (= Z_23 .x.790))) (let ((.def_156 (= P_23 .x.780))) (let ((.def_159 (= A1_23 .x.791))) (let ((.def_162 (= E1_23 .x.795))) (let ((.def_165 (not .loc.9))) (let ((.def_171 (select D_23 N_23))) (let ((.def_177 (select D_23 V_23))) (let ((.def_182 (<= 100000 W_23))) (let ((.def_202 (= W_23 .x.787))) (let ((.def_204 (= U_23 .x.785))) (let ((.def_213 (and .def_138 .def_156))) (let ((.def_214 (and .def_95 .def_213))) (let ((.def_234 (and .def_98 (and .def_204 .def_214)))) (let ((.def_252 (and I1_13 .def_85))) (let ((.def_266 (and .def_162 (and .def_110 (and .def_107 (and .def_104 (and .def_159 (and .def_154 (and .def_101 (and .def_202 (and .def_98 (and .def_204 (and .def_95 (and .def_156 (and .def_92 (and .def_89 .def_252)))))))))))))))) (let ((.def_277 (and .def_202 .def_234))) (let ((.def_284 (and .def_162 (and .def_110 (and .def_107 (and .def_104 (and .def_159 (and .def_154 (and .def_101 .def_277))))))))) (let ((.def_305 (not .loc.12))) (let ((.def_310 (and .def_112 (and .loc.7 (and .loc.6 .def_284))))) (let ((.def_317 (<= 100000 R_23))) (let ((.def_318 (or I1_13 .def_317))) (let ((.def_322 (= R_23 .x.782))) (let ((.def_324 (= D_23 .x.768))) (let ((.def_327 (= X_23 .x.788))) (let ((.def_330 (= F1_23 .x.796))) (let ((.def_335 (select D_23 C1_23))) (let ((.def_342 (not .def_317))) (let ((.def_354 (or H1_23 (= (+ R_23 (* (- 1) .x.782)) (- 1))))) (let ((.def_363 (and .def_156 (and .def_92 (and .def_89 (and .def_85 .def_324)))))) (let ((.def_377 (and .def_330 (and .def_162 (and .def_110 (and .def_107 (and .def_104 (and .def_159 (and .def_154 (and .def_101 (and .def_327 (and .def_202 (and .def_98 (and .def_204 (and .def_95 (and .def_322 .def_363)))))))))))))))) (let ((.def_392 (and .def_156 (and .def_92 (and .def_89 (and .def_252 .def_324)))))) (let ((.def_406 (and .def_330 (and .def_162 (and .def_110 (and .def_107 (and .def_104 (and .def_159 (and .def_154 (and .def_101 (and .def_327 (and .def_202 (and .def_98 (and .def_204 (and .def_95 (and .def_322 .def_392)))))))))))))))) (let ((.def_440 (or I1_13 (= .x.782 0)))) (let ((.def_465 (= G1_23 .x.797))) (let ((.def_467 (= Q_23 .x.781))) (let ((.def_499 (and .def_363 .def_467))) (let ((.def_551 (<= 100000 O_23))) (let ((.def_680 (store I1_0 .x.786 1))) (let ((.def_684 (store .def_680 .x.793 1))) (and (and (= K_23 .x.775) (and (= I_23 .x.773) (and (= G_23 .x.771) (and (= E_23 .x.769) (and (= A_23 .x.765) (= C_23 .x.767)))))) (or (and (or (and (or (or (or (or (and (or (or (or (or (or (or (and (or (or (and (or (or (or (and .def_51 (or (and (or (and (or (and (or (and (and (and (and (and (and (and (and (and (and .def_85 H1_23) .def_89) .def_92) .def_95) .def_98) .def_101) .def_104) .def_107) .def_110) .def_112) (and (or I1_13 (and (= .x.766 (store (store (store B_23 V_23 0) C1_23 0) N_23 0)) (= .x.794 0))) (and (and .loc.5 (or H1_23 (= .x.783 .x.794))) .def_125))) (and (and .loc.6 .loc.11) .def_132)) (and (or I1_13 .def_135) (and .def_49 (and (and .def_125 (and .loc.10 (and .loc.5 .def_144))) .def_148)))) (and (and (and (and .def_154 .def_156) .def_159) .def_162) .def_165)) (and (or I1_13 (and (= .x.790 (select .def_171 (+ (* 4 W_23) B1_23))) (and (= .x.780 .x.795) (and (= .x.791 (select .def_177 (+ (* 4 W_23) Y_23))) (and (not .def_182) (= .x.795 (ite (= .x.790 .x.791) 1 0))))))) (and .def_49 (and .def_148 (and .def_125 (and .def_132 (and .loc.9 (and .def_112 .def_144)))))))) (and .loc.8 (and .def_202 .def_204))) (and (or H1_23 (= (+ W_23 (* (- 1) .x.787)) (- 1))) (and .def_53 (and .def_49 (and .def_148 (and .def_125 (and .def_132 (and .def_165 (and .def_112 (and .def_162 (and .def_110 (and .def_107 (and .def_104 (and .def_101 (and .def_98 .def_214)))))))))))))))) (and (or I1_13 (= .x.787 0)) (and .def_53 (and .def_148 (and .def_125 (and .def_132 (and .def_165 (and .loc.7 (and .loc.6 (and .loc.5 (and .def_162 (and .def_110 (and .def_107 (and .def_104 (and .def_159 (and .def_154 (and .def_101 .def_234))))))))))))))))) (and .def_49 (and .def_148 (and .def_125 (and .loc.10 (and .loc.9 (and .def_51 (and .def_112 (and .loc.8 .def_266))))))))) (and (or I1_13 .def_182) (and .def_49 (and .def_148 (and .def_125 (and .loc.10 (and .loc.9 (and .def_51 (and .def_112 (and .loc.8 .def_284)))))))))) .loc.12) (and (and .def_53 (and .def_125 (and .loc.11 (and .loc.10 (and .loc.9 (and .def_112 (and .loc.7 (and .loc.6 .def_266)))))))) .def_305)) (and (and .def_305 (and .def_53 (and .def_125 (and .loc.11 (and .loc.10 (and .loc.9 .def_310)))))) .def_318)) (and (and (and .def_322 .def_324) .def_327) .def_330)) (and (or I1_13 (and (= .x.768 (store D_23 N_23 (store .def_171 (+ (* 4 R_23) B1_23) (select .def_335 (+ M_23 (* 4 R_23)))))) .def_342)) (and (and .def_305 (and .def_53 (and .def_125 (and .def_165 (and .loc.11 (and .loc.10 .def_310)))))) .def_354))) (and (or I1_13 (not .def_135)) (and .def_305 (and .def_49 (and .def_148 (and .def_125 (and .def_132 (and .def_165 (and .def_51 (and .loc.8 (and .loc.5 .def_377))))))))))) (and .def_305 (and .def_148 (and .def_125 (and .def_132 (and .def_165 (and .def_51 (and .def_112 (and .loc.8 (and .loc.6 .def_406)))))))))) (and (and .def_305 (and .def_53 (and .def_49 (and .def_125 (and .def_165 (and .loc.11 (and .loc.10 (and .loc.7 (and .loc.5 (and .def_330 (and .def_162 (and .def_110 (and .def_107 (and .def_104 (and .def_159 (and .def_154 (and .def_101 (and .def_327 (and .def_202 (and .def_98 (and .def_204 (and .def_95 .def_363)))))))))))))))))))))) .def_440)) (and .def_305 (and .def_53 (and .def_49 (and .def_125 (and .def_132 (and .loc.11 (and .loc.9 (and .def_112 (and .loc.7 .def_406)))))))))) (and .def_318 (and .def_305 (and .def_53 (and .def_49 (and .def_125 (and .def_132 (and .loc.11 (and .loc.9 (and .def_112 (and .loc.7 .def_377))))))))))) (and .def_465 .def_467)) (and (or I1_13 (and .def_342 (= .x.768 (store D_23 C1_23 (store .def_335 (+ M_23 (* 4 R_23)) (select .def_177 (+ (* 4 R_23) Y_23))))))) (and .def_354 (and .def_305 (and .def_53 (and .def_49 (and .def_125 (and .def_132 (and .def_165 (and .loc.11 (and .def_112 (and .loc.7 (and .def_330 (and .def_162 (and .def_110 (and .def_107 (and .def_104 (and .def_159 (and .def_154 (and .def_101 (and .def_277 .def_327))))))))))))))))))))) (and .def_440 (and .def_305 (and .def_53 (and .def_125 (and .def_132 (and .def_165 (and .loc.11 (and .def_51 (and .loc.6 (and .loc.5 (and .def_465 (and .def_330 (and .def_162 (and .def_110 (and .def_107 (and .def_104 (and .def_159 (and .def_154 (and .def_101 (and .def_327 (and .def_202 (and .def_98 (and .def_204 (and .def_95 .def_499))))))))))))))))))))))))) (and .def_305 (and .def_53 (and .def_148 (and .def_125 (and .loc.10 (and .loc.9 (and .def_51 (and .def_112 (and .loc.6 (and .def_465 (and .def_330 (and .def_162 (and .def_110 (and .def_107 (and .def_104 (and .def_159 (and .def_154 (and .def_101 (and .def_327 (and .def_202 (and .def_98 (and .def_204 (and .def_95 (and .def_322 (and .def_392 .def_467)))))))))))))))))))))))))) (and (or I1_13 .def_551) (and .def_305 (and .def_53 (and .def_148 (and .def_125 (and .loc.10 (and .loc.9 (and .def_51 (and .def_112 (and .loc.6 (and .def_465 (and .def_330 (and .def_162 (and .def_110 (and .def_107 (and .def_104 (and .def_159 (and .def_154 (and .def_101 (and .def_327 (and .def_202 (and .def_98 (and .def_204 (and .def_95 (and .def_322 .def_499)))))))))))))))))))))))))) (and (= T_23 .x.784) (and (= L_23 .x.776) (= O_23 .x.779)))) (and (or I1_13 (and (= .x.768 (store D_23 V_23 (store .def_177 (+ (* 4 O_23) Y_23) L_23))) (and (<= (- 2147483648) L_23) (and (<= L_23 2147483647) (not .def_551))))) (and (or H1_23 (= (+ O_23 (* (- 1) .x.779)) (- 1))) (and .def_305 (and .def_53 (and .def_148 (and .def_125 (and .def_165 (and .loc.10 (and .def_51 (and .def_112 (and .loc.6 (and .def_465 (and .def_330 (and .def_162 (and .def_110 (and .def_107 (and .def_104 (and .def_159 (and .def_154 (and .def_101 (and .def_327 (and .def_202 (and .def_98 (and .def_204 (and .def_95 (and .def_322 (and .def_213 .def_467)))))))))))))))))))))))))))) (and (= J_23 .x.774) (and (= F_23 .x.770) (= H_23 .x.772)))) (and (or I1_13 (and (and (= .x.774 0) (= .x.770 0)) (= I1_0 (store B_23 0 0)))) (and (or H1_23 (and (and (and (and (and (and (and (and (and (and (and (and (and (and (not (<= .x.765 .x.786)) (not (<= .x.765 .x.778))) (not (<= .x.765 .x.793))) (= .x.777 0)) (= .x.779 0)) (= .x.792 0)) (= .x.789 0)) (not (= .x.778 0))) (not (= .x.786 0))) (not (= .x.793 0))) (= (select I1_0 .x.786) 0)) (= (select .def_680 .x.793) 0)) (= (select .def_684 .x.778) 0)) (= .x.772 (store (store (store H_23 .x.786 400000) .x.793 400000) .x.778 400000))) (= .x.766 (store .def_684 .x.778 1)))) (and .def_305 (and .def_53 (and .def_49 (and .def_148 (and .def_125 (and .def_165 (and .loc.10 (and .def_51 (and .loc.5 (and .def_162 (and .def_95 (and .def_156 .def_324))))))))))))))))))))))))))))))))))))))))))))))))))))))))))))))))))))))))))) (state |.x.765| |.x.766| |.x.767| |.x.768| |.x.769| |.x.770| |.x.771| |.x.772| |.x.773| |.x.774| |.x.775| |.x.776| |.x.777| |.x.778| |.x.779| |.x.780| |.x.781| |.x.782| |.x.783| |.x.784| |.x.785| |.x.786| |.x.787| |.x.788| |.x.789| |.x.790| |.x.791| |.x.792| |.x.793| |.x.794| |.x.795| |.x.796| |.x.797| |H1_23| |.loc.9| |.loc.10| |.loc.11| |.loc.12| |.xtv.1|))))
(assert (forall ((|A_23| Int) (|B_23| (Array Int Int)) (|C_23| (Array Int Int)) (|D_23| (Array Int Int)) (|E_23| (Array Int Int)) (|F_23| Int) (|G_23| Int) (|H_23| (Array Int Int)) (|I_23| (Array Int Int)) (|J_23| Int) (|K_23| Int) (|L_23| Int) (|M_23| Int) (|N_23| Int) (|O_23| Int) (|P_23| Int) (|Q_23| Int) (|R_23| Int) (|S_23| Int) (|T_23| Int) (|U_23| Int) (|V_23| Int) (|W_23| Int) (|X_23| Int) (|Y_23| Int) (|Z_23| Int) (|A1_23| Int) (|B1_23| Int) (|C1_23| Int) (|D1_23| Int) (|E1_23| Int) (|F1_23| Int) (|G1_23| Int) (|I1_13| Bool) (|.loc.5| Bool) (|.loc.6| Bool) (|.loc.7| Bool) (|.loc.8| Bool) (|I1_0| (Array Int Int)) (|.x.775| Int) (|.x.773| (Array Int Int)) (|.x.771| Int) (|.x.769| (Array Int Int)) (|.x.765| Int) (|.x.767| (Array Int Int)) (|.x.766| (Array Int Int)) (|H1_23| Bool) (|.x.777| Int) (|.x.778| Int) (|.x.783| Int) (|.x.786| Int) (|.x.789| Int) (|.x.792| Int) (|.x.793| Int) (|.x.794| Int) (|.loc.11| Bool) (|.loc.10| Bool) (|.x.790| Int) (|.x.780| Int) (|.x.791| Int) (|.x.795| Int) (|.loc.9| Bool) (|.x.787| Int) (|.x.785| Int) (|.loc.12| Bool) (|.x.782| Int) (|.x.768| (Array Int Int)) (|.x.788| Int) (|.x.796| Int) (|.x.797| Int) (|.x.781| Int) (|.x.784| Int) (|.x.776| Int) (|.x.779| Int) (|.x.774| Int) (|.x.770| Int) (|.x.772| (Array Int Int)) (|.xtv.1| (Array Int Int))) (=> (state |A_23| |B_23| |C_23| |D_23| |E_23| |F_23| |G_23| |H_23| |I_23| |J_23| |K_23| |L_23| |M_23| |N_23| |O_23| |P_23| |Q_23| |R_23| |S_23| |T_23| |U_23| |V_23| |W_23| |X_23| |Y_23| |Z_23| |A1_23| |B1_23| |C1_23| |D1_23| |E1_23| |F1_23| |G1_23| |I1_13| |.loc.5| |.loc.6| |.loc.7| |.loc.8| |I1_0|) (not (and I1_13 (and .loc.8 (and .loc.7 (and (not .loc.6) (not .loc.5)))))))))
(check-sat)
